;; ===================== PROJECTED CANON (QE) =====================
;; Each clause below is entailed by Proj = ∃W.F over the canonical vocabulary.
;; Units appear first for clarity; OR-clauses (SAT-filtered) follow.
;; ==================================================================

;; Unit Bool constraints (entailed)
(assert (not patient_has_diagnosis_of_borderline_personality_disorder_inthehistory))
(assert (not patient_has_finding_of_borderline_personality_disorder_treated_inthehistory))
(assert (not patient_has_diagnosis_of_dissociative_disorder_inthehistory))
(assert (not patient_has_finding_of_dissociative_disorder_treated_inthehistory))
(assert (not patient_has_diagnosis_of_posttraumatic_stress_disorder_inthehistory))
(assert (not patient_has_finding_of_posttraumatic_stress_disorder_treated_inthehistory))
(assert (not patient_is_pregnant_now))
(assert (not patient_is_pregnant_inthefuture3months))
